DIMACS2
80 73 177 101 296 268 176 85 159 120 81 179 82 95 4 168 255 214 220 15 106 294 43 271 11 25 213 36 207 199 52 229 18 139 218 140 300 242 315 310 278 54 285 260 34 197 277 79 246 200 253 167 9 228 206 230 172 269 6 274 41 222 119 250 201 205 198 33 297 93 143 302 262 74 226 165 301 136 153 216 44
p edge 320 694
e 0 27 2.0
e 1 167 43.0
e 1 133 1.0
e 2 20 1.0
e 3 279 1.0
e 3 0 1.0
e 4 245 17.0
e 4 21 19.0
e 4 99 22.0
e 4 313 34.0
e 4 186 35.0
e 4 101 20.0
e 4 118 9.0
e 4 201 22.0
e 5 219 2.0
e 6 41 29.0
e 6 106 2.0
e 6 277 42.0
e 6 160 15.0
e 6 302 48.0
e 6 285 32.0
e 6 201 49.0
e 6 261 47.0
e 6 205 27.0
e 7 191 1.0
e 8 180 1.0
e 9 198 18.0
e 9 212 42.0
e 9 4 11.0
e 9 156 25.0
e 9 213 46.0
e 9 82 21.0
e 9 52 25.0
e 10 198 25.0
e 11 45 9.0
e 11 1 45.0
e 11 140 40.0
e 11 157 35.0
e 11 61 13.0
e 11 181 10.0
e 11 53 45.0
e 11 161 10.0
e 11 87 13.0
e 12 179 37.0
e 12 129 8.0
e 12 100 2.0
e 13 267 1.0
e 14 183 3.0
e 15 285 19.0
e 15 170 14.0
e 15 146 48.0
e 15 282 23.0
e 15 303 23.0
e 15 179 5.0
e 15 117 26.0
e 15 220 46.0
e 16 70 1.0
e 17 242 16.0
e 18 289 11.0
e 18 226 44.0
e 18 217 14.0
e 18 164 18.0
e 18 312 31.0
e 18 33 37.0
e 18 263 35.0
e 18 101 38.0
e 18 34 48.0
e 19 33 40.0
e 20 0 1.0
e 21 63 1.0
e 22 245 1.0
e 23 74 35.0
e 23 154 5.0
e 23 238 7.0
e 24 252 2.0
e 25 211 34.0
e 25 109 22.0
e 25 89 1.0
e 25 302 36.0
e 25 203 27.0
e 25 9 27.0
e 25 48 41.0
e 26 125 4.0
e 26 123 1.0
e 27 132 1.0
e 28 141 1.0
e 29 281 1.0
e 30 218 28.0
e 31 197 35.0
e 31 171 1.0
e 32 62 2.0
e 33 230 41.0
e 33 277 39.0
e 33 165 39.0
e 33 293 31.0
e 33 229 3.0
e 33 241 43.0
e 33 131 48.0
e 34 253 2.0
e 34 269 11.0
e 34 43 16.0
e 34 270 12.0
e 34 58 34.0
e 34 255 41.0
e 34 277 11.0
e 34 41 49.0
e 35 197 26.0
e 36 145 46.0
e 36 97 47.0
e 36 6 27.0
e 36 69 25.0
e 36 85 36.0
e 36 264 18.0
e 36 23 24.0
e 37 17 2.0
e 38 249 1.0
e 39 7 1.0
e 40 281 1.0
e 41 37 41.0
e 41 139 2.0
e 41 186 43.0
e 41 136 24.0
e 41 119 10.0
e 41 259 33.0
e 41 125 12.0
e 42 27 1.0
e 43 317 9.0
e 43 116 20.0
e 43 246 22.0
e 43 101 28.0
e 43 202 47.0
e 43 270 49.0
e 43 52 32.0
e 44 95 24.0
e 44 3 21.0
e 44 283 44.0
e 44 52 48.0
e 44 25 12.0
e 44 18 34.0
e 44 33 19.0
e 45 206 4.0
e 46 213 28.0
e 47 103 5.0
e 48 298 1.0
e 49 40 1.0
e 50 45 1.0
e 51 108 1.0
e 52 305 28.0
e 52 106 5.0
e 52 165 34.0
e 52 26 40.0
e 52 274 3.0
e 52 172 7.0
e 53 172 45.0
e 54 208 40.0
e 54 220 20.0
e 54 205 14.0
e 54 155 9.0
e 54 125 40.0
e 54 271 13.0
e 54 153 14.0
e 54 60 11.0
e 54 228 18.0
e 55 196 1.0
e 56 204 1.0
e 57 136 29.0
e 58 142 1.0
e 59 92 1.0
e 60 24 2.0
e 61 19 3.0
e 62 269 9.0
e 63 68 1.0
e 64 221 5.0
e 65 239 1.0
e 66 44 38.0
e 67 22 1.0
e 68 31 6.0
e 69 246 43.0
e 69 308 5.0
e 70 189 2.0
e 71 91 1.0
e 72 258 1.0
e 73 291 8.0
e 73 242 29.0
e 73 314 45.0
e 73 244 40.0
e 73 31 18.0
e 73 139 1.0
e 73 36 35.0
e 73 222 37.0
e 73 57 25.0
e 74 163 45.0
e 74 184 43.0
e 74 172 25.0
e 74 229 49.0
e 74 262 31.0
e 74 205 20.0
e 74 284 20.0
e 74 52 24.0
e 75 214 15.0
e 76 306 5.0
e 77 240 1.0
e 78 250 28.0
e 79 64 5.0
e 79 73 2.0
e 79 287 10.0
e 79 159 3.0
e 79 10 48.0
e 79 197 47.0
e 79 41 25.0
e 80 214 21.0
e 81 204 29.0
e 81 59 20.0
e 81 307 30.0
e 81 64 44.0
e 81 34 30.0
e 81 69 45.0
e 81 188 26.0
e 81 85 45.0
e 82 292 46.0
e 82 119 14.0
e 82 300 34.0
e 82 290 12.0
e 82 225 49.0
e 82 93 19.0
e 82 120 43.0
e 82 12 48.0
e 83 46 1.0
e 84 75 1.0
e 85 178 21.0
e 85 87 32.0
e 85 173 1.0
e 85 157 34.0
e 85 113 28.0
e 85 274 46.0
e 86 94 1.0
e 87 190 4.0
e 88 25 42.0
e 89 50 3.0
e 90 297 48.0
e 91 172 49.0
e 92 44 25.0
e 93 84 37.0
e 93 213 12.0
e 93 214 32.0
e 93 38 37.0
e 93 14 47.0
e 93 198 41.0
e 93 242 46.0
e 94 138 1.0
e 95 256 25.0
e 95 315 26.0
e 95 39 41.0
e 95 54 16.0
e 95 300 43.0
e 95 134 17.0
e 95 74 41.0
e 95 198 26.0
e 96 141 3.0
e 97 66 1.0
e 98 130 1.0
e 99 236 2.0
e 100 148 1.0
e 101 224 27.0
e 101 162 18.0
e 101 11 26.0
e 101 310 41.0
e 101 71 43.0
e 102 189 2.0
e 103 122 3.0
e 104 223 1.0
e 105 275 4.0
e 106 120 12.0
e 106 150 45.0
e 106 15 41.0
e 106 114 3.0
e 106 43 49.0
e 106 310 35.0
e 107 272 2.0
e 108 124 2.0
e 109 40 1.0
e 110 42 1.0
e 111 262 10.0
e 112 107 1.0
e 113 27 1.0
e 114 235 1.0
e 115 78 1.0
e 116 35 3.0
e 117 237 1.0
e 118 193 1.0
e 119 107 20.0
e 119 79 4.0
e 119 115 25.0
e 119 16 47.0
e 119 251 48.0
e 119 168 38.0
e 119 106 5.0
e 120 56 44.0
e 120 44 3.0
e 120 72 8.0
e 120 268 32.0
e 120 119 5.0
e 120 80 22.0
e 120 93 19.0
e 121 185 2.0
e 122 145 1.0
e 123 86 1.0
e 124 234 2.0
e 125 93 2.0
e 126 285 9.0
e 127 37 2.0
e 128 255 39.0
e 129 230 5.0
e 130 237 1.0
e 131 258 1.0
e 132 29 1.0
e 133 62 2.0
e 134 51 1.0
e 135 27 1.0
e 136 254 2.0
e 136 81 43.0
e 136 101 28.0
e 136 285 25.0
e 136 82 15.0
e 136 310 46.0
e 137 153 38.0
e 138 2 1.0
e 139 159 3.0
e 139 127 26.0
e 139 232 17.0
e 139 135 33.0
e 139 165 18.0
e 139 294 48.0
e 139 85 8.0
e 140 276 26.0
e 140 222 4.0
e 140 169 14.0
e 140 95 6.0
e 140 120 24.0
e 140 233 35.0
e 141 248 1.0
e 142 180 2.0
e 143 135 39.0
e 143 136 3.0
e 143 256 18.0
e 143 102 3.0
e 143 209 26.0
e 143 139 4.0
e 143 257 5.0
e 143 147 44.0
e 143 140 11.0
e 144 265 2.0
e 145 237 2.0
e 146 88 2.0
e 147 63 1.0
e 148 77 1.0
e 149 90 2.0
e 150 306 1.0
e 151 208 1.0
e 152 27 2.0
e 153 248 14.0
e 153 218 35.0
e 153 168 40.0
e 153 169 37.0
e 153 143 17.0
e 153 151 35.0
e 153 159 12.0
e 154 227 1.0
e 155 30 2.0
e 156 55 1.0
e 157 79 38.0
e 158 299 1.0
e 159 255 46.0
e 159 213 39.0
e 159 214 33.0
e 159 165 1.0
e 159 177 39.0
e 160 258 1.0
e 161 309 1.0
e 162 2 1.0
e 163 266 1.0
e 164 243 1.0
e 165 149 21.0
e 165 253 37.0
e 165 297 34.0
e 165 153 37.0
e 165 167 49.0
e 166 275 1.0
e 167 138 1.0
e 167 159 3.0
e 167 242 41.0
e 167 278 26.0
e 167 168 2.0
e 167 169 33.0
e 168 255 9.0
e 168 242 4.0
e 168 165 49.0
e 168 194 33.0
e 168 310 17.0
e 168 172 18.0
e 169 199 2.0
e 170 268 46.0
e 171 234 1.0
e 172 36 3.0
e 172 274 27.0
e 172 205 33.0
e 172 206 20.0
e 173 80 10.0
e 174 110 1.0
e 175 75 1.0
e 176 271 29.0
e 176 310 1.0
e 176 172 19.0
e 176 167 26.0
e 176 277 36.0
e 176 168 14.0
e 176 173 35.0
e 176 268 11.0
e 176 195 47.0
e 177 182 33.0
e 177 174 45.0
e 177 205 36.0
e 177 176 11.0
e 177 310 14.0
e 177 179 21.0
e 177 197 4.0
e 177 198 21.0
e 178 43 40.0
e 179 105 47.0
e 179 197 26.0
e 179 198 47.0
e 179 199 1.0
e 179 200 4.0
e 179 201 22.0
e 180 277 21.0
e 181 112 2.0
e 182 38 5.0
e 183 298 1.0
e 184 140 17.0
e 185 77 1.0
e 186 296 30.0
e 187 85 42.0
e 188 235 1.0
e 189 78 2.0
e 190 78 3.0
e 191 141 1.0
e 192 227 1.0
e 193 106 9.0
e 194 227 1.0
e 195 205 29.0
e 196 80 8.0
e 197 166 28.0
e 197 198 20.0
e 197 199 19.0
e 197 205 19.0
e 198 136 14.0
e 198 213 8.0
e 199 272 39.0
e 199 177 12.0
e 199 294 3.0
e 199 198 35.0
e 199 200 20.0
e 199 213 46.0
e 200 65 43.0
e 200 197 34.0
e 200 242 7.0
e 200 201 16.0
e 200 271 30.0
e 200 205 49.0
e 201 192 22.0
e 201 222 9.0
e 201 199 17.0
e 201 242 42.0
e 202 227 1.0
e 203 0 2.0
e 204 15 22.0
e 205 86 48.0
e 206 91 28.0
e 206 310 24.0
e 206 242 7.0
e 206 179 23.0
e 206 226 38.0
e 206 200 8.0
e 207 200 1.0
e 207 216 36.0
e 207 268 45.0
e 207 201 5.0
e 207 205 21.0
e 207 206 11.0
e 207 318 40.0
e 207 213 34.0
e 207 244 26.0
e 208 4 14.0
e 209 223 1.0
e 210 105 1.0
e 211 265 2.0
e 212 296 11.0
e 213 126 36.0
e 214 231 49.0
e 214 207 15.0
e 214 213 7.0
e 214 310 26.0
e 214 216 46.0
e 215 187 1.0
e 216 236 47.0
e 216 218 23.0
e 216 220 43.0
e 216 222 30.0
e 216 246 8.0
e 216 226 15.0
e 216 228 44.0
e 217 75 2.0
e 218 206 37.0
e 218 214 6.0
e 218 220 22.0
e 218 285 30.0
e 218 222 34.0
e 218 226 49.0
e 219 36 3.0
e 220 112 11.0
e 220 222 6.0
e 220 226 46.0
e 220 285 19.0
e 220 228 44.0
e 221 236 2.0
e 222 25 46.0
e 222 226 4.0
e 222 253 25.0
e 223 213 4.0
e 224 296 20.0
e 225 159 45.0
e 226 301 42.0
e 226 228 31.0
e 227 110 1.0
e 228 86 19.0
e 228 218 36.0
e 228 222 25.0
e 228 229 2.0
e 228 230 27.0
e 229 32 14.0
e 229 216 25.0
e 229 220 39.0
e 229 226 43.0
e 229 230 47.0
e 230 268 34.0
e 230 294 34.0
e 230 246 42.0
e 230 247 17.0
e 230 269 1.0
e 231 98 2.0
e 232 157 6.0
e 233 112 2.0
e 234 40 1.0
e 235 152 2.0
e 236 28 1.0
e 237 35 3.0
e 238 7 1.0
e 239 126 1.0
e 240 67 1.0
e 241 22 2.0
e 242 140 38.0
e 243 193 1.0
e 244 296 41.0
e 245 124 1.0
e 246 28 14.0
e 246 228 2.0
e 246 315 4.0
e 246 250 7.0
e 247 158 1.0
e 248 268 11.0
e 249 110 1.0
e 250 89 23.0
e 250 229 19.0
e 250 230 18.0
e 250 253 34.0
e 250 255 32.0
e 250 260 29.0
e 250 268 42.0
e 251 273 1.0
e 252 9 37.0
e 253 299 42.0
e 253 246 4.0
e 253 255 15.0
e 253 260 13.0
e 253 262 44.0
e 254 201 8.0
e 255 83 39.0
e 255 260 6.0
e 255 262 40.0
e 257 63 1.0
e 258 76 1.0
e 259 229 20.0
e 260 0 14.0
e 260 262 4.0
e 260 268 10.0
e 260 269 19.0
e 260 271 17.0
e 261 192 1.0
e 262 96 30.0
e 262 310 27.0
e 262 250 8.0
e 262 268 20.0
e 263 55 1.0
e 264 215 1.0
e 265 104 1.0
e 266 294 6.0
e 267 210 1.0
e 268 299 49.0
e 269 175 39.0
e 269 253 17.0
e 269 255 45.0
e 269 294 23.0
e 270 274 19.0
e 271 138 27.0
e 271 262 43.0
e 271 269 27.0
e 271 274 42.0
e 271 277 27.0
e 272 152 1.0
e 273 269 19.0
e 274 317 6.0
e 274 260 26.0
e 274 277 31.0
e 274 294 36.0
e 275 50 1.0
e 276 304 2.0
e 277 9 21.0
e 277 278 6.0
e 278 242 20.0
e 278 271 11.0
e 278 274 24.0
e 278 285 22.0
e 278 294 11.0
e 278 315 26.0
e 278 295 33.0
e 279 193 2.0
e 280 122 1.0
e 281 316 2.0
e 282 121 1.0
e 283 246 38.0
e 284 5 2.0
e 285 81 38.0
e 285 277 34.0
e 286 191 1.0
e 287 311 1.0
e 288 111 2.0
e 289 56 2.0
e 290 79 21.0
e 291 63 1.0
e 292 137 1.0
e 293 138 1.0
e 294 49 42.0
e 294 285 3.0
e 295 101 17.0
e 296 128 12.0
e 296 278 38.0
e 296 294 3.0
e 296 297 41.0
e 296 300 39.0
e 297 299 36.0
e 297 300 30.0
e 297 301 2.0
e 297 315 23.0
e 297 319 40.0
e 297 302 13.0
e 298 78 5.0
e 299 13 1.0
e 300 49 29.0
e 300 301 13.0
e 300 302 32.0
e 300 315 3.0
e 301 288 8.0
e 301 296 39.0
e 301 302 23.0
e 301 315 14.0
e 302 273 32.0
e 302 315 31.0
e 303 280 1.0
e 304 144 1.0
e 305 215 2.0
e 306 167 42.0
e 307 212 6.0
e 308 237 1.0
e 309 286 2.0
e 310 103 29.0
e 311 55 1.0
e 312 301 46.0
e 313 56 2.0
e 314 8 1.0
e 315 260 27.0
e 316 219 2.0
e 317 272 1.0
e 318 47 2.0
e 319 226 46.0
